n
lps
m
i
j
j
i
n
sc
text
subs
input
str
subStr
i
j
flag
strLen
subStrLen
count
input
str
i
count
input
str
vowels
i
j
sc
n
i
p
c
arr
change
i
found
j
ctr
i
input
str1
str2
sc
s1
s2
l
c
b
i
d
i
j
sub
a
b
c
s1
s2
dist
sc
s
t
firstLength
secondLength
m
i
i
i
j
values
first
second
input
n
i
j
t
min
sc
arr
i
sc
ch
c
n
sc
n
start
center
destination
sc
n
i
j
t
arr
mid
sc
n
i
p
f
arr
totalHammingDistance
aByteArray
bByteArray
i
firstString
secondString
hammingDistanceSolution
s1
s2
l1
l2
i
k
ch
sc
input
str1
str2
distance
i
input
num1
num2
n
s
sc
m
n
p
sc
input
num
input
str
size
flag
i
j
randomStringAsByteArray
byteArrayResult
i
randomString
expectedString
stringReversal
stringReversal
reversedString
randomString
palindromeCheck
randomString
palindromeCheck
input
str
reversed
size
i
input
str
reversed
i
input
word
size
flag
i
j
s
s1
i
l
ch
sc
reverseWord
i
input
word
length
reverse
sc
st
l
flag
i
sc
s
i
j
str
b
arr
input
str
words
i
input
sentence
capitalized
i
s
i
j
b
str
sc
arr
arr
b
i
j
s1
s2
sc
input
sentence
words
reversed
i
j
wordsReversed
p
c
i
j
sc
m
n
i
a
a2
res
sc
n
i
rd
t
arr
r
i
sc
m
n
arr1
arr2
i
i
i
length
val
num
input
n
i
input
num
str
k
i
s
min
s1
i
j
sc
s
i
n
a
result
sc
length
smallest_length
smallest_subs
ch
i
str
i
j
str_check
sc
str1
str2
n
m
dp
max
index
i
j
result
temp
str
sc
first
second
maxval
maxposi
maxposj
result
mat
i
j
i
str
i
j
sc
s1
s2
k
i
n
i
sc
arr
sc
n
p
i
j
k
arr1
arr2
t
n
i
t
k
sc
arr
i
j
ri
rj
rot
n
i
j
sc
ri
rj
arr
rot
i
j
sc
n
sc
s
p
i
j
str
c
i
j
n
m
i
sc
a
b
i
j
k
n
m
k
i
sc
a
b
c
input
line
word
splittedLine
count
i
input
n
temp
input
n
arr
i
i
i
input
n
arr
i
input
num
input
n
input
a
n
power
input
str
input
n
arr
i
input
n
input
row
col
arr1
i
j
arr2
i
j
i
j
i
j
sum
i
j
input
n
arr
i
j
i
j
input
size
arr
i
n
found
pos
i
input
i
i
temp
i
input
num
arr
arr
sum
input
line
words
numWords
reversed
i
thisWord
j
reversedLine
input
row
col
arr
i
j
i
j
i
j
input
n
i
j
input
n
i
j
input
n
i
j
i
j
input
radius
input
n
input
num
input
choice
n1
n2
input
i
i
temp
i
input
num
arr
input
n
input
year
i
j
t
a
b
i
s
sc
arr
sc
input
in
out
i
k
j
previous
p
next
q
i
n
visited
res
sc
str
temp
input
n
i
j
i
j
k
i
j
t
i
j
k
t
input
n
i
j
count
input
n
i
j
n
i
j
t
k
l
i
j
n
i
j
t
k
l
input
n
i
j
input
n
i
j
input
n
i
j
input
n
i
j
input
n
i
j
n
i
j
k
p
t
j
j
k
j
i
j
i
j
i
sc
arr
sc
n
p
i
j
k
arr
part
input
res
input
n
i
i
n
sc
input
n
i
i
fizzBuzzPrabhat
repetitions
index
